c ---- [ banner ] ------------------------------------------------------------
c
c Kissat SAT Solver
c 
c Copyright (c) 2021-2024 Armin Biere University of Freiburg
c Copyright (c) 2019-2021 Armin Biere Johannes Kepler University Linz
c 
c Version 4.0.1 43f02cf3e992cb44653b35e5cb26f93281552ae0
c gcc (Ubuntu 13.2.0-23ubuntu4) 13.2.0 -W -Wall -O3 -DNDEBUG
c Thu Sep 12 12:27:46 CEST 2024 Linux abryzen9 6.8.0-41-generic x86_64
c
c ---- [ parsing ] -----------------------------------------------------------
c
c opened and reading DIMACS file:
c
c   /data/artifact/AMulet2.0_artifact/exp4/cnf_compress2rs_64/64_64_U_SP_DT_RC_GenMul_compress2rs.cnf
c
c parsed 'p cnf 34710 135413' header
c closing input after reading 2634257 bytes (3 MB)
c finished parsing after 0.03 seconds
c
c ---- [ options ] -----------------------------------------------------------
c
c --stable=0                       (different from default '1')
c
c ---- [ solving ] -----------------------------------------------------------
c
c  seconds switched rate     size/glue tier1  binary           remaining
c         MB reductions conflicts size  tier2     irredundant
c          level restarts redundant glue  trail           variables
c
c *  0.03 10 0 0 0  0 0   0   0 0.0 0 0 0 0 0% 27655 107756 34707 100%
c (  0.06 12 0 0 0  0 0   0   0 0.0 0 0 0 0 0% 27655 107756 34707 100%
c .  0.07 13 0 0 0  0 0   0   0 0.0 0 0 0 0 0% 27651 107756 34707 100%
c c  0.17 21 0 0 0  0 0   0   0 0.0 0 0 0 0 0% 34555 93948 31255 90%
c d  0.17 21 0 0 0  0 0   0   0 0.0 0 0 0 0 0% 27651 93948 31255 90%
c =  0.23 21 0 0 0  0 0   0   0 0.0 0 0 0 0 0% 28161 93948 31000 89%
c d  0.24 21 0 0 0  0 0   0   0 0.0 0 0 0 0 0% 27651 93948 31000 89%
c f  0.34 19 0 0 0  0 0   0   0 0.0 0 0 0 0 0% 30397 89548 32654 94%
c e  0.48 26 0 0 0  0 0   0   0 0.0 0 0 0 0 0% 8467 103402 21635 62%
c )  0.48 26 0 0 0  0 0   0   0 0.0 0 0 0 0 0% 8467 103402 21635 62%
c {  0.50 26 0 0 0  0 0   0   0 0.0 0 0 2 6 0% 8467 103402 21635 62%
c -  0.77 27 173 0 1 138 26 1001 766 4.7 36 8 3 11 18% 8491 103402 21635 62%
c -  1.00 27 180 0 2 205 24 2001 1467 4.3 32 7 3 12 24% 8501 103402 21635 62%
c c  1.12 21 271 0 2 225 23 2502 1887 4.1 28 7 3 12 22% 8519 103377 21628 62%
c d  1.13 21 271 0 2 225 23 2502 1884 4.1 28 7 3 12 22% 8505 103377 21628 62%
c u  1.15 21 271 0 2 225 23 2502 1404 4.1 28 7 3 12 22% 8505 103377 21628 62%
c v  1.17 21 271 0 2 225 23 2502 1307 4.1 28 7 3 12 22% 8505 103377 21628 62%
c w  1.19 21 271 0 2 225 23 2502 1307 4.1 28 7 3 12 22% 8505 103377 21628 62%
c =  1.28 21 271 0 2 225 23 2502 1307 4.1 28 7 3 12 22% 8785 103377 21488 62%
c d  1.28 21 271 0 2 225 23 2502 1307 4.1 28 7 3 12 22% 8505 103377 21488 62%
c
c  seconds   switched   rate       size/glue tier1     binary          remaining
c         MB  reductions conflicts       size  tier2      irredundant
c           level restarts    redundant    glue    trail          variables
c
c f  1.32 21 271 0 2 225 23 2502 1307 4.1 28 7 3 12 22% 9155 102121 22094 64%
c u  1.36 21 271 0 2 225 23 2502 1254 4.1 28 7 3 12 22% 9155 102121 22094 64%
c v  1.39 21 271 0 2 225 23 2502 1144 4.1 28 7 3 12 22% 9155 102121 22094 64%
c w  1.41 21 271 0 2 225 23 2502 1141 4.1 28 7 3 12 22% 9155 102121 22094 64%
c =  1.47 21 271 0 2 225 23 2502 1141 4.1 28 7 3 12 22% 9413 102121 21965 63%
c d  1.48 21 271 0 2 225 23 2502 1141 4.1 28 7 3 12 22% 9094 102121 21965 63%
c f  1.52 21 271 0 2 225 23 2502 1141 4.1 28 7 3 12 22% 9408 101650 22122 64%
c -  1.71 25 259 0 3 273 24 3415 1710 3.9 25 6 3 11 22% 9423 101650 22122 64%
c -  2.18 25 288 0 4 456 28 5147 2740 4.3 27 6 2 11 24% 9478 101650 22122 64%
c -  2.63 25 369 0 5 626 33 7148 3965 4.6 29 6 2 10 24% 9518 101650 22122 64%
c c  2.78 25 380 0 5 673 32 7704 4484 4.5 28 6 2 10 24% 9522 101601 22102 64%
c d  2.79 25 380 0 5 673 32 7704 4468 4.5 28 6 2 10 24% 9478 101601 22100 64%
c u  2.81 25 380 0 5 673 32 7704 3639 4.5 28 6 2 10 24% 9486 101601 22100 64%
c v  2.85 25 380 0 5 673 32 7704 3142 4.5 28 6 2 10 24% 9486 101601 22100 64%
c w  2.89 25 380 0 5 673 32 7704 3142 4.5 28 6 2 10 24% 9486 101601 22100 64%
c x  2.92 25 380 0 5 673 32 7704 3142 4.5 28 6 2 10 24% 9486 101336 22100 64%
c =  3.05 25 380 0 5 673 32 7704 3142 4.5 28 6 2 10 24% 10316 101336 21685 62%
c d  3.06 25 380 0 5 673 32 7704 3132 4.5 28 6 2 10 24% 9381 101336 21685 62%
c t  3.07 25 380 0 5 673 32 7704 3132 4.5 28 6 2 10 24% 9380 101336 21685 62%
c f  3.12 25 380 0 5 673 32 7704 3132 4.5 28 6 2 10 24% 10694 99365 22342 64%
c
c  seconds   switched   rate       size/glue tier1     binary          remaining
c         MB  reductions conflicts       size  tier2       irredundant
c           level restarts    redundant    glue    trail          variables
c
c u  3.16 25 380 0 5 673 32 7704 2983 4.5 28 6 2 10 24% 10695 99365 22342 64%
c v  3.19 25 380 0 5 673 32 7704 2897 4.5 28 6 2 10 24% 10695 99365 22342 64%
c w  3.24 25 380 0 5 673 32 7704 2895 4.5 28 6 2 10 24% 10695 99365 22342 64%
c x  3.27 25 380 0 5 673 32 7704 2895 4.5 28 6 2 10 24% 10695 96942 22342 64%
c =  3.40 25 380 0 5 673 32 7704 2895 4.5 28 6 2 10 24% 11323 96942 22028 63%
c d  3.41 25 380 0 5 673 32 7704 2889 4.5 28 6 2 10 24% 10589 96942 22028 63%
c t  3.42 25 380 0 5 673 32 7704 2889 4.5 28 6 2 10 24% 10569 96942 22028 63%
c f  3.47 25 380 0 5 673 32 7704 2889 4.5 28 6 2 10 24% 11219 95967 22353 64%
c -  4.22 25 365 0 6 997 35 9384 3850 4.5 30 7 2 10 25% 11239 95967 22353 64%
c o  4.49 25 365 0 6 1087 35 10049 4474 4.5 29 7 2 10 25% 11243 95967 22353 64%
c -  5.17 25 355 0 7 1336 36 11833 5304 4.8 32 7 2 9 26% 11285 95967 22353 64%
c s  5.35 25 356 0 7 1387 35 12505 5925 4.7 32 7 2 9 27% 11288 93658 22353 64%
c e  5.46 25 356 0 7 1387 35 12505 5925 4.7 32 7 2 9 27% 9996 94454 21472 62%
c s  5.47 25 356 0 7 1387 35 12505 5925 4.7 32 7 2 9 27% 9996 93522 21472 62%
c e  5.49 25 356 0 7 1387 35 12505 5925 4.7 32 7 2 9 27% 9926 93592 21451 62%
c ^  5.49 25 356 0 7 1387 35 12505 5925 4.7 32 7 2 9 27% 9926 93592 21451 62%
c -  5.96 25 351 0 8 1537 34 14481 6286 4.7 32 7 2 9 28% 9995 93592 21451 62%
c d  6.16 25 341 0 8 1634 33 15781 7423 4.7 31 7 2 9 28% 9839 93592 21341 61%
c u  6.19 25 341 0 8 1634 33 15781 6003 4.7 31 7 2 9 28% 9856 93592 21341 61%
c v  6.22 25 341 0 8 1634 33 15781 5099 4.7 31 7 2 9 28% 9856 93592 21341 61%
c
c  seconds   switched    rate        size/glue tier1    binary         remaining
c         MB  reductions   conflicts       size  tier2     irredundant
c           level  restarts     redundant    glue   trail         variables
c
c w  6.29 25 341 0 8 1634 33 15781 5088 4.7 31 7 2 9 28% 9856 93592 21341 61%
c x  6.32 25 341 0 8 1634 33 15781 5088 4.7 31 7 2 9 28% 9856 90861 21341 61%
c =  6.52 25 341 0 8 1634 33 15781 5088 4.7 31 7 2 9 28% 12360 90859 20089 58%
c d  6.52 25 341 0 8 1634 33 15781 4976 4.7 31 7 2 9 28% 9292 90859 20086 58%
c t  6.54 25 341 0 8 1634 33 15781 4976 4.7 31 7 2 9 28% 9273 90859 20086 58%
c f  6.58 25 341 0 8 1634 33 15781 4976 4.7 31 7 2 9 28% 9307 90791 20103 58%
c u  6.64 25 341 0 8 1634 33 15781 4474 4.7 31 7 2 9 28% 9308 90791 20103 58%
c v  6.66 25 341 0 8 1634 33 15781 4342 4.7 31 7 2 9 28% 9308 90791 20103 58%
c w  6.71 25 341 0 8 1634 33 15781 4317 4.7 31 7 2 9 28% 9308 90791 20103 58%
c x  6.76 25 341 0 8 1634 33 15781 4316 4.7 31 7 2 9 28% 9309 88791 20103 58%
c =  6.94 25 341 0 8 1634 33 15781 4316 4.7 31 7 2 9 28% 11535 88791 18990 55%
c d  6.94 25 341 0 8 1634 33 15781 4262 4.7 31 7 2 9 28% 9010 88791 18990 55%
c t  6.95 25 341 0 8 1634 33 15781 4262 4.7 31 7 2 9 28% 9009 88791 18990 55%
c -  7.18 26 331 0 9 1742 33 17310 4914 4.6 30 7 2 9 28% 9029 88791 18990 55%
c o  7.47 26 326 0 9 1893 31 20216 7457 4.5 29 6 2 9 27% 9091 88791 18990 55%
c -  7.53 26 325 0 10 1918 31 20310 6742 4.5 29 7 2 8 27% 9091 88791 18990 55%
c -  8.02 28 311 0 11 2197 31 23472 8466 4.4 29 7 2 8 27% 9116 88791 18990 55%
c s  8.17 28 308 0 11 2301 31 25007 9723 4.4 29 7 2 8 27% 9142 86912 18990 55%
c e  8.27 28 308 0 11 2301 31 25007 9723 4.4 29 7 2 8 27% 7659 90579 15690 45%
c s  8.29 28 308 0 11 2301 31 25007 9723 4.4 29 7 2 8 27% 7659 84993 15690 45%
c
c  seconds   switched     rate        size/glue tier1    binary         remaining
c         MB   reductions   conflicts       size  tier2     irredundant
c           level   restarts     redundant    glue   trail         variables
c
c e  8.32 28 308 0 11 2301 31 25007 9723 4.4 29 7 2 8 27% 7643 85020 15677 45%
c ^  8.32 28 308 0 11 2301 31 25007 9723 4.4 29 7 2 8 27% 7643 85020 15677 45%
c -  8.54 27 294 0 12 2399 30 26788 8089 4.2 27 7 2 7 27% 7650 85020 15677 45%
c d  8.56 27 293 0 12 2404 29 26908 8203 4.2 27 7 2 7 27% 7594 85020 15640 45%
c u  8.59 27 293 0 12 2404 29 26908 6659 4.2 27 7 2 7 27% 7609 85020 15640 45%
c v  8.61 27 293 0 12 2404 29 26908 5747 4.2 27 7 2 7 27% 7609 85020 15640 45%
c w  8.62 27 293 0 12 2404 29 26908 5744 4.2 27 7 2 7 27% 7609 85020 15640 45%
c x  8.68 27 293 0 12 2404 29 26908 5744 4.2 27 7 2 7 27% 7609 82555 15640 45%
c =  8.85 27 293 0 12 2404 29 26908 5744 4.2 27 7 2 7 27% 9807 82539 14541 42%
c d  8.86 27 293 0 12 2404 29 26908 5420 4.2 27 7 2 7 27% 7552 82539 14541 42%
c t  8.86 27 293 0 12 2404 29 26908 5420 4.2 27 7 2 7 27% 7545 82539 14541 42%
c f  8.92 27 293 0 12 2404 29 26908 5420 4.2 27 7 2 7 27% 7544 82498 14551 42%
c u  8.94 27 293 0 12 2404 29 26908 4864 4.2 27 7 2 7 27% 7545 82498 14551 42%
c v  8.96 27 293 0 12 2404 29 26908 4719 4.2 27 7 2 7 27% 7545 82498 14551 42%
c w  8.97 27 293 0 12 2404 29 26908 4716 4.2 27 7 2 7 27% 7545 82498 14551 42%
c x  9.04 27 293 0 12 2404 29 26908 4715 4.2 27 7 2 7 27% 7545 72662 14551 42%
c =  9.19 27 293 0 12 2404 29 26908 4715 4.2 27 7 2 7 27% 7743 72662 14452 42%
c d  9.19 27 293 0 12 2404 29 26908 4714 4.2 27 7 2 7 27% 7545 72662 14452 42%
c -  9.58 27 272 0 13 2633 28 30254 6878 3.9 25 7 2 8 27% 7562 72661 14452 42%
c -  9.97 27 261 0 14 2885 27 33860 8962 3.8 24 6 2 8 28% 7585 72660 14452 42%
c
c  seconds   switched     rate         size/glue tier1    binary         remaining
c         MB   reductions   conflicts        size  tier2     irredundant
c           level   restarts      redundant    glue   trail         variables
c
c - 10.57 27 245 0 15 3273 26 37601 10819 3.7 24 7 2 7 28% 7605 72657 14452 42%
c o 10.81 27 239 0 15 3419 26 40277 13141 3.6 23 6 2 7 28% 7628 72657 14452 42%
c d 11.04 27 237 0 15 3576 26 41257 13939 3.6 24 7 2 7 28% 7571 72657 14414 42%
c u 11.07 27 237 0 15 3576 26 41257 12103 3.6 24 7 2 7 28% 7588 72657 14414 42%
c v 11.12 27 237 0 15 3576 26 41257 10790 3.6 24 7 2 7 28% 7589 72657 14414 42%
c w 11.15 27 237 0 15 3576 26 41257 10790 3.6 24 7 2 7 28% 7589 72657 14414 42%
c x 11.18 27 237 0 15 3576 26 41257 10790 3.6 24 7 2 7 28% 7589 71899 14414 42%
c = 11.38 27 237 0 15 3576 26 41257 10790 3.6 24 7 2 7 28% 8517 71899 13950 40%
c d 11.38 27 237 0 15 3576 26 41257 10570 3.6 24 7 2 7 28% 7531 71899 13950 40%
c c 11.44 27 237 0 15 3576 26 41257 10570 3.6 24 7 2 7 28% 7537 71875 13947 40%
c d 11.45 27 237 0 15 3576 26 41257 10568 3.6 24 7 2 7 28% 7531 71875 13947 40%
c u 11.47 27 237 0 15 3576 26 41257 9889 3.6 24 7 2 7 28% 7531 71875 13947 40%
c v 11.50 27 237 0 15 3576 26 41257 9326 3.6 24 7 2 7 28% 7531 71875 13947 40%
c w 11.56 27 237 0 15 3576 26 41257 9316 3.6 24 7 2 7 28% 7531 71875 13947 40%
c x 11.61 27 237 0 15 3576 26 41257 9316 3.6 24 7 2 7 28% 7531 69303 13947 40%
c - 11.84 27 236 0 16 3584 26 41474 8378 3.6 24 7 2 7 28% 7531 69303 13947 40%
c - 12.19 27 231 0 17 3863 25 45474 10529 3.5 23 7 2 7 27% 7549 69302 13947 40%
c - 12.60 27 221 0 18 4206 24 49597 12607 3.4 22 7 2 7 27% 7585 69301 13947 40%
c s 12.91 27 224 0 18 4468 25 52113 14803 3.4 23 7 2 7 27% 7608 68643 13947 40%
c e 12.97 27 224 0 18 4468 25 52113 14803 3.4 23 7 2 7 27% 6460 70782 13063 38%
c
c  seconds   switched     rate         size/glue tier1    binary         remaining
c         MB   reductions   conflicts        size  tier2     irredundant
c           level   restarts      redundant    glue   trail         variables
c
c s 12.98 27 224 0 18 4468 25 52113 14803 3.4 23 7 2 7 27% 6460 70592 13063 38%
c e 12.99 27 224 0 18 4468 25 52113 14803 3.4 23 7 2 7 27% 6458 70600 13056 38%
c ^ 12.99 27 224 0 18 4468 25 52113 14803 3.4 23 7 2 7 27% 6458 70600 13056 38%
c - 13.19 27 221 0 19 4600 24 53841 12918 3.3 22 7 2 6 27% 6460 70600 13056 38%
c - 13.57 27 217 0 20 4907 24 58199 14667 3.2 22 7 2 6 27% 6530 70600 13056 38%
c d 13.65 27 215 0 20 4963 24 58924 15132 3.2 22 7 2 6 27% 6481 70600 13026 38%
c u 13.69 27 215 0 20 4963 24 58924 12737 3.2 22 7 2 6 27% 6508 70600 13026 38%
c v 13.73 27 215 0 20 4963 24 58924 11201 3.2 22 7 2 6 27% 6511 70600 13026 38%
c w 13.75 27 215 0 20 4963 24 58924 11158 3.2 22 7 2 6 27% 6512 70600 13026 38%
c x 13.80 27 215 0 20 4963 24 58924 11158 3.2 22 7 2 6 27% 6512 70498 13026 38%
c d 13.81 27 215 0 20 4963 24 58924 11141 3.2 22 7 2 6 27% 6490 70498 13015 37%
c t 13.82 27 215 0 20 4963 24 58924 11141 3.2 22 7 2 6 27% 6486 70498 13015 37%
c f 13.85 27 215 0 20 4963 24 58924 11141 3.2 22 7 2 6 27% 6493 70466 13020 38%
c u 13.88 27 215 0 20 4963 24 58924 10647 3.2 22 7 2 6 27% 6502 70466 13020 38%
c v 13.91 27 215 0 20 4963 24 58924 10354 3.2 22 7 2 6 27% 6502 70466 13020 38%
c w 13.93 27 215 0 20 4963 24 58924 10332 3.2 22 7 2 6 27% 6502 70466 13020 38%
c = 14.14 27 215 0 20 4963 24 58924 10332 3.2 22 7 2 6 27% 6718 70466 12912 37%
c d 14.15 27 215 0 20 4963 24 58924 10229 3.2 22 7 2 6 27% 6467 70466 12909 37%
c - 14.61 27 208 0 21 5248 23 62674 12279 3.1 21 7 2 6 27% 6487 70465 12909 37%
c - 15.06 27 204 0 22 5556 23 67260 14687 3.1 20 7 2 6 26% 6528 70465 12909 37%
c
c  seconds   switched     rate         size/glue tier1    binary         remaining
c         MB   reductions   conflicts        size  tier2     irredundant
c           level   restarts      redundant    glue   trail         variables
c
c o 15.39 27 200 0 22 5793 23 70282 17218 3.1 21 7 2 6 26% 6566 70465 12909 37%
c - 15.62 27 198 0 23 5996 23 71950 16646 3.1 21 7 2 6 26% 6570 70465 12909 37%
c - 16.07 27 200 0 24 6402 23 76745 16355 3.1 21 7 1 5 26% 6634 70463 12909 37%
c d 16.48 27 197 0 24 6701 22 80026 19126 3.0 20 7 1 5 26% 6506 70461 12833 37%
c u 16.53 27 197 0 24 6701 22 80026 17312 3.0 20 7 1 5 26% 6527 70461 12833 37%
c v 16.58 27 197 0 24 6701 22 80026 14220 3.0 20 7 1 5 26% 6536 70461 12833 37%
c w 16.64 27 197 0 24 6701 22 80026 14204 3.0 20 7 1 5 26% 6536 70461 12833 37%
c x 16.69 27 197 0 24 6701 22 80026 14204 3.0 20 7 1 5 26% 6536 70415 12833 37%
c = 16.76 27 197 0 24 6701 22 80026 14204 3.0 20 7 1 5 26% 6562 70415 12820 37%
c d 16.76 27 197 0 24 6701 22 80026 14180 3.0 20 7 1 5 26% 6506 70415 12806 37%
c t 16.77 27 197 0 24 6701 22 80026 14180 3.0 20 7 1 5 26% 6503 70415 12806 37%
c f 16.78 27 197 0 24 6701 22 80026 14180 3.0 20 7 1 5 26% 6511 70381 12810 37%
c u 16.81 27 197 0 24 6701 22 80026 13802 3.0 20 7 1 5 26% 6519 70381 12810 37%
c v 16.85 27 197 0 24 6701 22 80026 13309 3.0 20 7 1 5 26% 6524 70381 12810 37%
c w 16.97 27 197 0 24 6701 22 80026 12900 3.0 20 7 1 5 26% 6524 70381 12810 37%
c = 17.24 27 197 0 24 6701 22 80026 12900 3.0 20 7 1 5 26% 7294 70335 12419 36%
c d 17.24 27 197 0 24 6701 22 80026 12510 3.0 20 7 1 5 26% 6442 70335 12419 36%
c - 17.34 27 196 0 25 6743 22 81643 11483 3.0 20 7 1 5 26% 6463 70335 12419 36%
c - 18.05 27 192 0 26 7319 22 86643 13829 3.0 20 7 1 5 27% 6478 70335 12419 36%
c - 18.92 27 189 0 27 8108 23 91742 15804 2.9 21 7 1 5 27% 6503 70335 12419 36%
c
c  seconds   switched     rate         size/glue tier1    binary         remaining
c         MB   reductions   conflicts        size  tier2     irredundant
c           level   restarts      redundant    glue   trail         variables
c
c s 19.25 27 187 0 27 8394 23 95864 19251 2.9 20 7 1 5 26% 6543 67687 12419 36%
c e 19.32 27 187 0 27 8394 23 95864 19251 2.9 20 7 1 5 26% 4562 72802 11320 33%
c 2 19.32 27 187 0 27 8394 23 95864 19251 2.9 20 7 1 5 26% 4560 72802 11320 33%
c s 19.33 27 187 0 27 8394 23 95864 19251 2.9 20 7 1 5 26% 4560 72490 11320 33%
c e 19.34 27 187 0 27 8394 23 95864 19251 2.9 20 7 1 5 26% 4546 72576 11279 32%
c ^ 19.34 27 187 0 27 8394 23 95864 19251 2.9 20 7 1 5 26% 4546 72576 11279 32%
c - 19.52 27 185 0 28 8539 23 96938 14528 2.9 20 7 1 5 26% 4553 72576 11279 32%
c - 20.21 27 180 0 29 9145 22 102229 16380 2.9 20 7 1 5 27% 4584 72576 11279 32%
c c 20.63 27 179 0 29 9507 23 104685 18665 2.9 21 7 1 5 27% 4633 72301 11239 32%
c d 20.63 27 179 0 29 9507 23 104685 18530 2.9 21 7 1 5 27% 4553 72301 11239 32%
c u 20.67 27 179 0 29 9507 23 104685 16439 2.9 21 7 1 5 27% 4565 72301 11239 32%
c v 20.72 27 179 0 29 9507 23 104685 13733 2.9 21 7 1 5 27% 4568 72301 11239 32%
c w 20.88 27 179 0 29 9507 23 104685 13319 2.9 21 7 1 5 27% 4568 72301 11239 32%
c = 21.26 27 179 0 29 9507 23 104685 13319 2.9 21 7 1 5 27% 4774 72301 11136 32%
c d 21.26 27 179 0 29 9507 23 104685 13210 2.9 21 7 1 5 27% 4526 72301 11136 32%
c t 21.27 27 179 0 29 9507 23 104685 13210 2.9 21 7 1 5 27% 4521 72301 11136 32%
c f 21.31 27 179 0 29 9507 23 104685 13210 2.9 21 7 1 5 27% 4525 72279 11138 32%
c u 21.34 27 179 0 29 9507 23 104685 12687 2.9 21 7 1 5 27% 4525 72279 11138 32%
c v 21.37 27 179 0 29 9507 23 104685 12150 2.9 21 7 1 5 27% 4525 72279 11138 32%
c w 21.51 27 179 0 29 9507 23 104685 12027 2.9 21 7 1 5 27% 4525 72279 11138 32%
c
c  seconds   switched     rate          size/glue tier1    binary         remaining
c         MB   reductions   conflicts         size  tier2     irredundant
c           level   restarts       redundant    glue   trail         variables
c
c x 21.60 27 179 0 29 9507 23 104685 12025 2.9 21 7 1 5 27% 4525 69820 11138 32%
c - 22.35 27 176 0 30 9747 22 107614 12615 2.8 20 7 1 5 27% 4531 69820 11138 32%
c o 22.83 27 174 0 30 10039 22 110287 15123 2.8 20 7 1 5 27% 4535 69820 11138 32%
c - 23.29 27 172 0 31 10332 22 113092 15199 2.8 20 7 1 5 27% 4549 69820 11138 32%
c - 23.58 27 167 0 32 10532 21 118659 17098 2.8 20 7 1 5 26% 4586 69819 11138 32%
c i 23.63 27 164 0 32 10561 21 120382 18348 2.8 20 7 1 5 26% 4625 69819 11137 32%
c - 24.36 27 163 0 33 11120 21 124315 18463 2.8 20 7 1 5 26% 4636 69819 11137 32%
c - 25.19 27 160 0 34 11684 21 130060 19665 2.8 20 7 1 5 27% 4677 69815 11137 32%
c d 25.61 27 159 0 34 11990 21 132995 21592 2.8 21 7 1 5 27% 4582 69807 11068 32%
c d 25.61 27 159 0 34 11990 21 132995 21589 2.8 21 7 1 5 27% 4578 69807 11066 32%
c u 25.66 27 159 0 34 11990 21 132995 19170 2.8 21 7 1 5 27% 4635 69807 11066 32%
c v 25.72 27 159 0 34 11990 21 132995 15505 2.8 21 7 1 5 27% 4650 69807 11066 32%
c w 25.88 27 159 0 34 11990 21 132995 15001 2.8 21 7 1 5 27% 4651 69807 11066 32%
c d 25.89 27 159 0 34 11990 21 132995 14867 2.8 21 7 1 5 27% 4567 69807 11024 32%
c t 25.90 27 159 0 34 11990 21 132995 14867 2.8 21 7 1 5 27% 4561 69807 11024 32%
c c 25.94 27 159 0 34 11990 21 132995 14867 2.8 21 7 1 5 27% 4623 69458 10985 32%
c d 25.94 27 159 0 34 11990 21 132995 14779 2.8 21 7 1 5 27% 4545 69458 10985 32%
c u 25.97 27 159 0 34 11990 21 132995 14128 2.8 21 7 1 5 27% 4557 69458 10985 32%
c v 26.01 27 159 0 34 11990 21 132995 13355 2.8 21 7 1 5 27% 4560 69458 10985 32%
c w 26.15 27 159 0 34 11990 21 132995 13254 2.8 21 7 1 5 27% 4560 69458 10985 32%
c
c  seconds   switched      rate          size/glue tier1    binary         remaining
c         MB   reductions    conflicts         size  tier2     irredundant
c           level   restarts        redundant    glue   trail         variables
c
c x 26.21 27 159 0 34 11990 21 132995 13254 2.8 21 7 1 5 27% 4560 69404 10985 32%
c d 26.60 27 159 0 34 11990 21 132995 13241 2.8 21 7 1 5 27% 4548 69404 10979 32%
c i 26.62 27 159 0 34 11990 21 133268 13374 2.8 20 7 1 5 27% 4578 69404 10978 32%
c i 26.89 27 158 0 34 12145 21 135755 15658 2.7 20 7 1 5 27% 4587 69402 10977 32%
c - 26.89 27 158 0 35 12145 21 135890 13522 2.7 20 7 1 5 27% 4587 69402 10977 32%
c i 27.39 27 156 0 35 12482 21 139425 16684 2.7 20 7 1 5 27% 4619 69401 10976 32%
c i 27.43 27 156 0 35 12517 21 139645 16881 2.7 20 7 1 5 27% 4620 69401 10975 32%
c i 27.46 27 156 0 35 12548 21 139884 17080 2.7 20 7 1 5 27% 4628 69401 10973 32%
c i 27.58 27 156 0 35 12607 21 140593 17748 2.7 20 7 1 5 27% 4630 69401 10968 32%
c - 27.73 27 155 0 36 12700 21 141807 15991 2.7 20 7 1 5 27% 4635 69401 10968 32%
c i 27.79 27 155 0 36 12740 21 141999 16168 2.7 20 7 1 5 27% 4638 69401 10967 32%
c i 27.84 27 154 0 36 12777 21 142445 16559 2.7 20 7 1 5 27% 4640 69401 10966 32%
c i 28.44 27 153 0 36 13175 21 145532 19495 2.7 20 8 1 5 28% 4656 69401 10965 32%
c i 28.55 27 153 0 36 13266 21 146034 19946 2.7 21 8 1 5 28% 4660 69401 10964 32%
c i 28.55 27 153 0 36 13266 21 146051 19949 2.7 21 8 1 5 28% 4664 69401 10963 32%
c i 28.63 27 153 0 36 13328 21 146817 20627 2.7 20 8 1 5 28% 4677 69401 10962 32%
c i 28.72 27 153 0 36 13387 21 147341 21089 2.7 21 8 1 5 28% 4683 69399 10961 32%
c - 28.77 27 152 0 37 13418 21 147807 18156 2.7 21 8 1 5 28% 4672 69399 10961 32%
c i 29.02 27 152 0 37 13581 21 149675 19873 2.7 21 8 1 5 28% 4679 69399 10960 32%
c i 29.21 27 151 0 37 13718 21 151439 21488 2.7 21 8 1 5 28% 4696 69399 10958 32%
c
c  seconds   switched      rate          size/glue tier1    binary         remaining
c         MB   reductions    conflicts         size  tier2     irredundant
c           level   restarts        redundant    glue   trail         variables
c
c i 29.46 27 150 0 37 13889 21 153450 23323 2.7 21 8 1 5 28% 4706 69399 10955 32%
c i 29.48 27 150 0 37 13902 21 153563 23422 2.7 21 8 1 5 28% 4709 69399 10953 32%
c - 29.53 27 150 0 38 13935 20 153890 19705 2.7 20 8 1 5 28% 4697 69399 10953 32%
c 2 29.90 27 147 0 38 14207 20 158031 23387 2.7 20 8 1 5 27% 4703 69399 10952 32%
c s 29.90 27 147 0 38 14207 20 158031 23387 2.7 20 8 1 5 27% 4704 69158 10952 32%
c e 30.00 27 147 0 38 14207 20 158031 23387 2.7 20 8 1 5 27% 2362 79676 9322 27%
c s 30.02 27 147 0 38 14207 20 158031 23387 2.7 20 8 1 5 27% 2362 78621 9322 27%
c e 30.04 27 147 0 38 14207 20 158031 23387 2.7 20 8 1 5 27% 2351 78777 9274 27%
c ^ 30.04 27 147 0 38 14207 20 158031 23387 2.7 20 8 1 5 27% 2351 78777 9274 27%
c i 30.10 27 147 0 38 14244 20 158778 15865 2.6 20 8 1 5 27% 2357 78777 9273 27%
c i 30.18 27 146 0 38 14327 20 159676 16692 2.6 20 8 1 5 27% 2361 78777 9272 27%
c i 30.20 27 146 0 38 14350 20 160043 17011 2.6 20 8 1 5 27% 2364 78776 9271 27%
c - 30.21 27 146 0 39 14353 20 160054 14063 2.6 20 8 1 5 27% 2367 78740 9271 27%
c o 30.23 27 146 0 39 14376 20 160287 14261 2.6 20 8 1 5 27% 2370 78740 9271 27%
c i 30.35 27 143 0 39 14493 19 163517 16851 2.6 20 8 1 5 27% 2382 78740 9270 27%
c d 30.45 27 142 0 39 14585 19 165044 18116 2.6 20 8 1 5 27% 2360 78732 9255 27%
c u 30.48 27 142 0 39 14585 19 165044 16149 2.6 20 8 1 5 27% 2380 78732 9255 27%
c v 30.54 27 142 0 39 14585 19 165044 12733 2.6 20 8 1 5 27% 2387 78732 9255 27%
c w 30.63 27 142 0 39 14585 19 165044 12138 2.6 20 8 1 5 27% 2387 78732 9255 27%
c d 30.64 27 142 0 39 14585 19 165044 12116 2.6 20 8 1 5 27% 2361 78732 9242 27%
c
c  seconds   switched      rate          size/glue tier1    binary        remaining
c         MB   reductions    conflicts         size  tier2     irredundant
c           level   restarts        redundant    glue   trail        variables
c
c t 30.65 27 142 0 39 14585 19 165044 12116 2.6 20 8 1 5 27% 2360 78732 9242 27%
c f 30.77 27 142 0 39 14585 19 165044 12116 2.6 20 8 1 5 27% 2374 78307 9262 27%
c c 30.81 27 142 0 39 14585 19 165044 11998 2.6 20 8 1 5 27% 2411 78081 9237 27%
c d 30.82 27 142 0 39 14585 19 165044 11997 2.6 20 8 1 5 27% 2362 78081 9237 27%
c u 30.86 27 142 0 39 14585 19 165044 11669 2.6 20 8 1 5 27% 2369 78081 9237 27%
c v 30.92 27 142 0 39 14585 19 165044 11141 2.6 20 8 1 5 27% 2371 78081 9237 27%
c w 31.04 27 142 0 39 14585 19 165044 11009 2.6 20 8 1 5 27% 2371 78081 9237 27%
c d 31.05 27 142 0 39 14585 19 165044 11007 2.6 20 8 1 5 27% 2365 78074 9234 27%
c i 31.08 27 142 0 39 14592 19 165145 11086 2.6 20 8 1 5 27% 2368 78074 9233 27%
c i 31.13 27 142 0 39 14622 19 165671 11563 2.6 20 8 1 5 26% 2370 78074 9232 27%
c - 31.16 27 141 0 40 14637 19 166298 9926 2.6 20 8 1 5 26% 2365 78074 9232 27%
c i 31.18 27 141 0 40 14649 19 166534 10124 2.6 20 8 1 5 26% 2368 78074 9231 27%
c i 31.42 27 139 0 40 14860 19 170074 13132 2.6 20 8 1 5 26% 2404 78074 9230 27%
c i 31.43 27 139 0 40 14864 19 170433 13397 2.6 20 8 1 5 26% 2411 78074 9229 27%
c i 31.44 27 138 0 40 14874 19 170583 13528 2.6 20 8 1 5 26% 2412 78074 9228 27%
c - 31.51 27 137 0 41 14919 18 172623 12169 2.6 19 8 1 5 25% 2407 78074 9228 27%
c i 31.54 27 136 0 41 14964 18 173571 13005 2.6 19 8 1 5 25% 2410 78074 9227 27%
c i 31.69 27 134 0 41 15129 18 176008 15046 2.6 19 8 1 5 25% 2445 78074 9226 27%
c i 31.74 27 133 0 41 15205 18 177333 16086 2.6 19 8 1 5 25% 2466 78074 9224 27%
c i 31.74 27 133 0 41 15209 18 177564 16233 2.6 19 8 1 5 25% 2475 78074 9222 27%
c
c  seconds   switched      rate          size/glue tier1    binary        remaining
c         MB   reductions    conflicts         size  tier2     irredundant
c           level   restarts        redundant    glue   trail        variables
c
c i 31.75 27 132 0 41 15209 18 178468 16928 2.5 19 8 1 5 24% 2490 78074 9221 27%
c i 31.77 27 131 0 41 15223 18 178670 17096 2.5 19 8 1 5 24% 2494 78074 9220 27%
c i 31.77 27 131 0 41 15226 17 178966 17320 2.5 19 8 1 5 24% 2497 78074 9215 27%
c i 31.77 27 131 0 41 15226 17 179022 17357 2.5 19 8 1 5 24% 2500 78074 9214 27%
c - 31.78 27 131 0 42 15226 17 179027 13036 2.5 19 8 1 5 24% 2482 78074 9214 27%
c i 31.78 27 131 0 42 15226 17 179029 13036 2.5 19 8 1 5 24% 2483 78074 9213 27%
c i 31.78 27 131 0 42 15226 17 179046 13043 2.5 19 8 1 5 24% 2486 78074 9207 27%
c i 31.78 27 131 0 42 15226 17 179050 13042 2.5 19 8 1 5 24% 2489 78074 9204 27%
c } 31.78 27 131 0 42 15226 17 179052 13042 2.5 19 8 1 5 24% 2489 78074 9196 26%
c 0 31.78 27 131 0 42 15226 17 179052 13042 2.5 19 8 1 5 24% 2489 78074 9196 26%
c
c ---- [ result ] ------------------------------------------------------------
c
s UNSATISFIABLE
c
c ---- [ profiling ] ---------------------------------------------------------
c
c          22.70   71.43 %  search
c          22.70   71.43 %  focused
c           8.58   27.00 %  simplify
c           8.16   25.68 %  probe
c           3.25   10.24 %  vivify
c           3.20   10.07 %  sweep
c           0.71    2.23 %  factor
c           0.69    2.18 %  eliminate
c           0.44    1.38 %  substitute
c           0.42    1.33 %  preprocess
c           0.41    1.29 %  congruence
c           0.19    0.60 %  reduce
c           0.14    0.44 %  fastel
c           0.12    0.39 %  subsume
c           0.10    0.32 %  transitive
c           0.05    0.15 %  backbone
c           0.04    0.14 %  lucky
c           0.03    0.10 %  parse
c =============================================
c          31.78  100.00 %  total
c
c ---- [ statistics ] --------------------------------------------------------
c
c chronological:                         4614                3 %  conflicts
c conflicts:                           179052             5634.60 per second
c congruent:                             3586               10 %  variables
c decisions:                          3345094               18.68 per conflict
c eliminated:                           18943               55 %  variables
c factored:                              3457               10 %  variables
c fast_eliminated:                      11019               58 %  eliminated
c fast_subsumed:                           54                0 %  per subsumed
c iterations:                              41                0 %  variables
c propagations:                     145079887          4565527    per second
c reductions:                              42             4263    interval
c reordered:                                6            29842    interval
c restarts:                             15226               12    interval
c strengthened:                          4671                0 %  checks
c substituted:                           9949               29 %  variables
c subsumed:                             15738                0 %  checks
c switched:                                 0                0    interval
c vivified:                             84374               15 %  checks
c
c ---- [ glue usage ] --------------------------------------------------------
c
c focused glue 1 used 297517 clauses 58.96% accumulated 58.96% tier1
c focused glue 2 used 100508 clauses 19.92% accumulated 78.87%
c focused glue 3 used  32677 clauses  6.48% accumulated 85.35%
c focused glue 4 used  19243 clauses  3.81% accumulated 89.16%
c focused glue 5 used  12921 clauses  2.56% accumulated 91.72% tier2
c
c ---- [ resources ] ---------------------------------------------------------
c
c maximum-resident-set-size:         28905472 bytes         28 MB
c process-time:                            32s              31.78 seconds
c
c ---- [ shutting down ] -----------------------------------------------------
c
c exit 20
